problem_generation/data/GISP/train/er_n=60_m=1076_p=0.60_SET2_setparam=100.00_alpha=0.50_174.lp
maximize
OBJ:100x0 + 100x1 + 100x2 + 100x3 + 100x4 + 100x5 + 100x6 + 100x7 + 100x8 + 100x9 + 100x10 + 100x11 + 100x12 + 100x13 + 100x14 + 100x15 + 100x16 + 100x17 + 100x18 + 100x19 + 100x20 + 100x21 + 100x22 + 100x23 + 100x24 + 100x25 + 100x26 + 100x27 + 100x28 + 100x29 + 100x30 + 100x31 + 100x32 + 100x33 + 100x34 + 100x35 + 100x36 + 100x37 + 100x38 + 100x39 + 100x40 + 100x41 + 100x42 + 100x43 + 100x44 + 100x45 + 100x46 + 100x47 + 100x48 + 100x49 + 100x50 + 100x51 + 100x52 + 100x53 + 100x54 + 100x55 + 100x56 + 100x57 + 100x58 + 100x59 - y55_57 - y36_53 - y7_26 - y29_32 - y18_44 - y0_5 - y8_18 - y48_54 - y0_14 - y6_48 - y11_14 - y40_50 - y10_27 - y10_36 - y25_34 - y2_50 - y25_52 - y22_37 - y22_46 - y3_42 - y14_51 - y18_21 - y17_53 - y7_30 - y18_30 - y9_58 - y21_32 - y48_58 - y6_52 - y10_22 - y25_29 - y10_40 - y33_42 - y2_36 - y2_45 - y3_10 - y10_58 - y32_55 - y13_51 - y3_37 - y28_39 - y7_16 - y17_48 - y28_57 - y9_53 - y6_38 - y40_58 - y2_13 - y2_22 - y25_33 - y10_44 - y2_40 - y2_49 - y3_14 - y35_46 - y14_23 - y1_53 - y24_55 - y16_51 - y36_38 - y5_41 - y28_43 - y47_56 - y9_39 - y5_50 - y6_15 - y17_52 - y2_8 - y31_53 - y2_26 - y25_28 - y23_58 - y24_32 - y32_45 - y16_46 - y1_57 - y13_59 - y16_55 - y5_27 - y36_42 - y9_25 - y36_51 - y9_34 - y6_10 - y17_56 - y29_30 - y21_26 - y42_58 - y2_12 - y10_25 - y31_57 - y23_53 - y2_30 - y4_49 - y4_58 - y51_53 - y24_45 - y43_58 - y1_52 - y13_54 - y9_11 - y9_20 - y3_47 - y9_29 - y5_49 - y9_47 - y42_44 - y50_57 - y23_39 - y20_52 - y31_52 - y23_48 - y13_22 - y32_35 - y13_31 - y24_40 - y35_40 - y1_47 - y35_49 - y5_8 - y1_56 - y16_54 - y5_17 - y17_19 - y5_26 - y17_28 - y9_24 - y50_52 - y30_46 - y42_48 - y8_55 - y20_38 - y31_38 - y2_11 - y12_43 - y23_43 - y20_56 - y4_39 - y16_22 - y24_35 - y13_44 - y24_44 - y1_51 - y38_46 - y17_23 - y9_19 - y15_53 - y49_55 - y5_39 - y8_32 - y19_32 - y27_54 - y0_37 - y11_37 - y30_50 - y50_56 - y0_46 - y19_59 - y0_55 - y31_33 - y23_29 - y23_38 - y4_43 - y1_19 - y53_57 - y38_41 - y46_54 - y9_14 - y38_50 - y18_53 - y27_40 - y19_36 - y0_32 - y8_45 - y0_41 - y11_41 - y12_15 - y39_41 - y12_24 - y4_29 - y12_42 - y34_48 - y16_21 - y16_30 - y15_34 - y26_52 - y38_54 - y18_48 - y8_22 - y19_22 - y11_18 - y19_31 - y30_31 - y11_27 - y19_40 - y27_53 - y19_49 - y11_45 - y41_46 - y20_23 - y11_54 - y12_19 - y31_32 - y4_15 - y33_51 - y12_37 - y23_37 - y4_33 - y1_9 - y22_41 - y37_39 - y34_52 - y45_52 - y22_59 - y3_55 - y37_57 - y15_47 - y18_43 - y26_56 - y0_4 - y29_58 - y0_31 - y11_49 - y4_10 - y33_46 - y10_53 - y44_55 - y4_28 - y1_4 - y2_58 - y34_38 - y3_41 - y45_56 - y37_52 - y7_29 - y15_42 - y7_47 - y8_12 - y7_56 - y8_21 - y48_57 - y11_17 - y40_53 - y8_30 - y11_26 - y21_58 - y11_35 - y33_41 - y10_48 - y44_50 - y33_59 - y25_55 - y14_27 - y34_42 - y14_36 - y45_51 - y3_54 - y15_19 - y15_28 - y26_37 - y18_42 - y0_3 - y29_39 - y21_44 - y11_21 - y40_57 - y41_49 - y25_32 - y52_58 - y25_41 - y44_54 - y2_48 - y3_13 - y22_26 - y34_37 - y3_31 - y14_31 - y14_49 - y17_51 - y7_37 - y9_56 - y29_43 - y48_56 - y40_52 - y21_48 - y6_59 - y21_57 - y10_20 - y10_29 - y33_49 - y3_8 - y10_56 - y51_57 - y25_54 - y14_17 - y13_58 - y3_35 - y14_35 - y14_44 - y7_14 - y9_42 - y5_53 - y9_51 - y6_27 - y0_2 - y21_34 - y29_47 - y40_56 - y21_52 - y33_35 - y10_42 - y2_38 - y22_25 - y2_56 - y3_21 - y32_57 - y13_53 - y17_32 - y28_32 - y7_9 - y55_58 - y17_41 - y9_37 - y17_59 - y6_22 - y28_59 - y29_33 - y29_42 - y21_38 - y6_49 - y21_47 - y10_19 - y10_28 - y2_24 - y25_26 - y2_33 - y32_43 - y24_39 - y14_16 - y32_52 - y43_52 - y24_48 - y35_48 - y14_25 - y16_44 - y13_57 - y28_36 - y28_45 - y36_58 - y47_58 - y5_52 - y9_50 - y6_35 - y6_44 - y21_42 - y10_23 - y10_32 - y12_51 - y2_37 - y13_43 - y24_43 - y32_56 - y16_39 - y24_52 - y35_52 - y17_31 - y5_29 - y9_27 - y9_36 - y28_49 - y6_12 - y21_28 - y8_58 - y12_46 - y23_46 - y23_55 - y13_20 - y4_51 - y13_29 - y32_42 - y1_36 - y13_38 - y24_47 - y1_54 - y13_56 - y24_56 - y9_13 - y36_39 - y38_58 - y28_35 - y28_44 - y6_7 - y9_40 - y27_48 - y27_57 - y19_53 - y39_40 - y20_36 - y23_32 - y20_45 - y39_58 - y31_54 - y12_50 - y4_55 - y16_20 - y32_46 - y16_29 - y43_46 - y35_42 - y16_47 - y5_10 - y38_44 - y5_19 - y46_57 - y9_17 - y5_37 - y9_35 - y8_39 - y19_39 - y50_54 - y19_48 - y30_48 - y42_50 - y42_59 - y11_53 - y20_31 - y31_40 - y20_49 - y4_32 - y31_49 - y1_8 - y20_58 - y31_58 - y12_54 - y4_50 - y24_28 - y4_59 - y13_37 - y16_33 - y49_57 - y18_51 - y8_25 - y19_34 - y42_45 - y27_56 - y8_52 - y19_52 - y0_48 - y12_13 - y20_26 - y4_18 - y23_49 - y45_46 - y53_59 - y45_55 - y5_9 - y26_41 - y5_18 - y46_56 - y38_52 - y49_52 - y7_46 - y26_59 - y7_55 - y18_55 - y8_29 - y19_29 - y27_42 - y8_38 - y27_51 - y0_34 - y30_47 - y42_49 - y0_43 - y11_43 - y41_53 - y4_13 - y1_25 - y15_27 - y26_36 - y7_32 - y18_32 - y18_41 - y15_54 - y49_56 - y7_50 - y19_33 - y30_33 - y0_29 - y33_53 - y4_26 - y25_58 - y4_35 - y22_34 - y1_11 - y3_39 - y14_39 - y45_54 - y14_48 - y14_57 - y15_22 - y7_18 - y15_31 - y18_27 - y37_49 - y15_40 - y7_36 - y18_36 - y0_6 - y48_55 - y27_32 - y8_28 - y0_24 - y11_24 - y30_37 - y0_33 - y11_33 - y12_16 - y33_57 - y25_53 - y1_6 - y14_34 - y34_49 - y3_43 - y37_45 - y3_52 - y18_22 - y15_35 - y26_35 - y18_49 - y48_50 - y0_10 - y8_23 - y29_55 - y21_51 - y33_34 - y41_47 - y25_30 - y4_16 - y10_50 - y44_52 - y25_48 - y2_55 - y3_20 - y34_44 - y14_47 - y7_8 - y3_56
 Subject to
C1: x0+x2-y0_2 <=1 
C2: x0+x3-y0_3 <=1 
C3: x0+x4-y0_4 <=1 
C4: x0+x5-y0_5 <=1 
C5: x0+x6-y0_6 <=1 
C6: x0+x8 <=1 
C7: x0+x10-y0_10 <=1 
C8: x0+x11 <=1 
C9: x0+x14-y0_14 <=1 
C10: x0+x17 <=1 
C11: x0+x19 <=1 
C12: x0+x20 <=1 
C13: x0+x21 <=1 
C14: x0+x22 <=1 
C15: x0+x23 <=1 
C16: x0+x24-y0_24 <=1 
C17: x0+x26 <=1 
C18: x0+x29-y0_29 <=1 
C19: x0+x30 <=1 
C20: x0+x31-y0_31 <=1 
C21: x0+x32-y0_32 <=1 
C22: x0+x33-y0_33 <=1 
C23: x0+x34-y0_34 <=1 
C24: x0+x35 <=1 
C25: x0+x37-y0_37 <=1 
C26: x0+x38 <=1 
C27: x0+x40 <=1 
C28: x0+x41-y0_41 <=1 
C29: x0+x43-y0_43 <=1 
C30: x0+x46-y0_46 <=1 
C31: x0+x48-y0_48 <=1 
C32: x0+x55-y0_55 <=1 
C33: x1+x4-y1_4 <=1 
C34: x1+x6-y1_6 <=1 
C35: x1+x7 <=1 
C36: x1+x8-y1_8 <=1 
C37: x1+x9-y1_9 <=1 
C38: x1+x10 <=1 
C39: x1+x11-y1_11 <=1 
C40: x1+x15 <=1 
C41: x1+x18 <=1 
C42: x1+x19-y1_19 <=1 
C43: x1+x20 <=1 
C44: x1+x23 <=1 
C45: x1+x25-y1_25 <=1 
C46: x1+x26 <=1 
C47: x1+x27 <=1 
C48: x1+x30 <=1 
C49: x1+x31 <=1 
C50: x1+x32 <=1 
C51: x1+x33 <=1 
C52: x1+x34 <=1 
C53: x1+x35 <=1 
C54: x1+x36-y1_36 <=1 
C55: x1+x38 <=1 
C56: x1+x40 <=1 
C57: x1+x41 <=1 
C58: x1+x42 <=1 
C59: x1+x44 <=1 
C60: x1+x45 <=1 
C61: x1+x47-y1_47 <=1 
C62: x1+x48 <=1 
C63: x1+x51-y1_51 <=1 
C64: x1+x52-y1_52 <=1 
C65: x1+x53-y1_53 <=1 
C66: x1+x54-y1_54 <=1 
C67: x1+x56-y1_56 <=1 
C68: x1+x57-y1_57 <=1 
C69: x1+x58 <=1 
C70: x2+x4 <=1 
C71: x2+x7 <=1 
C72: x2+x8-y2_8 <=1 
C73: x2+x9 <=1 
C74: x2+x10 <=1 
C75: x2+x11-y2_11 <=1 
C76: x2+x12-y2_12 <=1 
C77: x2+x13-y2_13 <=1 
C78: x2+x15 <=1 
C79: x2+x16 <=1 
C80: x2+x17 <=1 
C81: x2+x18 <=1 
C82: x2+x22-y2_22 <=1 
C83: x2+x24-y2_24 <=1 
C84: x2+x26-y2_26 <=1 
C85: x2+x27 <=1 
C86: x2+x28 <=1 
C87: x2+x30-y2_30 <=1 
C88: x2+x33-y2_33 <=1 
C89: x2+x35 <=1 
C90: x2+x36-y2_36 <=1 
C91: x2+x37-y2_37 <=1 
C92: x2+x38-y2_38 <=1 
C93: x2+x40-y2_40 <=1 
C94: x2+x43 <=1 
C95: x2+x45-y2_45 <=1 
C96: x2+x47 <=1 
C97: x2+x48-y2_48 <=1 
C98: x2+x49-y2_49 <=1 
C99: x2+x50-y2_50 <=1 
C100: x2+x52 <=1 
C101: x2+x55-y2_55 <=1 
C102: x2+x56-y2_56 <=1 
C103: x2+x57 <=1 
C104: x2+x58-y2_58 <=1 
C105: x2+x59 <=1 
C106: x3+x6 <=1 
C107: x3+x7 <=1 
C108: x3+x8-y3_8 <=1 
C109: x3+x10-y3_10 <=1 
C110: x3+x13-y3_13 <=1 
C111: x3+x14-y3_14 <=1 
C112: x3+x16 <=1 
C113: x3+x19 <=1 
C114: x3+x20-y3_20 <=1 
C115: x3+x21-y3_21 <=1 
C116: x3+x23 <=1 
C117: x3+x30 <=1 
C118: x3+x31-y3_31 <=1 
C119: x3+x33 <=1 
C120: x3+x34 <=1 
C121: x3+x35-y3_35 <=1 
C122: x3+x37-y3_37 <=1 
C123: x3+x39-y3_39 <=1 
C124: x3+x41-y3_41 <=1 
C125: x3+x42-y3_42 <=1 
C126: x3+x43-y3_43 <=1 
C127: x3+x47-y3_47 <=1 
C128: x3+x50 <=1 
C129: x3+x52-y3_52 <=1 
C130: x3+x54-y3_54 <=1 
C131: x3+x55-y3_55 <=1 
C132: x3+x56-y3_56 <=1 
C133: x4+x5 <=1 
C134: x4+x7 <=1 
C135: x4+x8 <=1 
C136: x4+x10-y4_10 <=1 
C137: x4+x11 <=1 
C138: x4+x13-y4_13 <=1 
C139: x4+x14 <=1 
C140: x4+x15-y4_15 <=1 
C141: x4+x16-y4_16 <=1 
C142: x4+x18-y4_18 <=1 
C143: x4+x20 <=1 
C144: x4+x21 <=1 
C145: x4+x24 <=1 
C146: x4+x25 <=1 
C147: x4+x26-y4_26 <=1 
C148: x4+x27 <=1 
C149: x4+x28-y4_28 <=1 
C150: x4+x29-y4_29 <=1 
C151: x4+x32-y4_32 <=1 
C152: x4+x33-y4_33 <=1 
C153: x4+x34 <=1 
C154: x4+x35-y4_35 <=1 
C155: x4+x37 <=1 
C156: x4+x38 <=1 
C157: x4+x39-y4_39 <=1 
C158: x4+x40 <=1 
C159: x4+x43-y4_43 <=1 
C160: x4+x44 <=1 
C161: x4+x46 <=1 
C162: x4+x49-y4_49 <=1 
C163: x4+x50-y4_50 <=1 
C164: x4+x51-y4_51 <=1 
C165: x4+x53 <=1 
C166: x4+x55-y4_55 <=1 
C167: x4+x56 <=1 
C168: x4+x57 <=1 
C169: x4+x58-y4_58 <=1 
C170: x4+x59-y4_59 <=1 
C171: x5+x8-y5_8 <=1 
C172: x5+x9-y5_9 <=1 
C173: x5+x10-y5_10 <=1 
C174: x5+x14 <=1 
C175: x5+x15 <=1 
C176: x5+x17-y5_17 <=1 
C177: x5+x18-y5_18 <=1 
C178: x5+x19-y5_19 <=1 
C179: x5+x21 <=1 
C180: x5+x23 <=1 
C181: x5+x24 <=1 
C182: x5+x25 <=1 
C183: x5+x26-y5_26 <=1 
C184: x5+x27-y5_27 <=1 
C185: x5+x28 <=1 
C186: x5+x29-y5_29 <=1 
C187: x5+x33 <=1 
C188: x5+x34 <=1 
C189: x5+x36 <=1 
C190: x5+x37-y5_37 <=1 
C191: x5+x39-y5_39 <=1 
C192: x5+x40 <=1 
C193: x5+x41-y5_41 <=1 
C194: x5+x42 <=1 
C195: x5+x43 <=1 
C196: x5+x44 <=1 
C197: x5+x45 <=1 
C198: x5+x46 <=1 
C199: x5+x48 <=1 
C200: x5+x49-y5_49 <=1 
C201: x5+x50-y5_50 <=1 
C202: x5+x51 <=1 
C203: x5+x52-y5_52 <=1 
C204: x5+x53-y5_53 <=1 
C205: x5+x57 <=1 
C206: x5+x58 <=1 
C207: x6+x7-y6_7 <=1 
C208: x6+x8 <=1 
C209: x6+x10-y6_10 <=1 
C210: x6+x11 <=1 
C211: x6+x12-y6_12 <=1 
C212: x6+x13 <=1 
C213: x6+x15-y6_15 <=1 
C214: x6+x18 <=1 
C215: x6+x19 <=1 
C216: x6+x21 <=1 
C217: x6+x22-y6_22 <=1 
C218: x6+x24 <=1 
C219: x6+x25 <=1 
C220: x6+x27-y6_27 <=1 
C221: x6+x30 <=1 
C222: x6+x31 <=1 
C223: x6+x33 <=1 
C224: x6+x35-y6_35 <=1 
C225: x6+x36 <=1 
C226: x6+x38-y6_38 <=1 
C227: x6+x39 <=1 
C228: x6+x41 <=1 
C229: x6+x43 <=1 
C230: x6+x44-y6_44 <=1 
C231: x6+x45 <=1 
C232: x6+x48-y6_48 <=1 
C233: x6+x49-y6_49 <=1 
C234: x6+x51 <=1 
C235: x6+x52-y6_52 <=1 
C236: x6+x54 <=1 
C237: x6+x55 <=1 
C238: x6+x58 <=1 
C239: x6+x59-y6_59 <=1 
C240: x7+x8-y7_8 <=1 
C241: x7+x9-y7_9 <=1 
C242: x7+x13 <=1 
C243: x7+x14-y7_14 <=1 
C244: x7+x15 <=1 
C245: x7+x16-y7_16 <=1 
C246: x7+x18-y7_18 <=1 
C247: x7+x21 <=1 
C248: x7+x23 <=1 
C249: x7+x26-y7_26 <=1 
C250: x7+x29-y7_29 <=1 
C251: x7+x30-y7_30 <=1 
C252: x7+x32-y7_32 <=1 
C253: x7+x36-y7_36 <=1 
C254: x7+x37-y7_37 <=1 
C255: x7+x38 <=1 
C256: x7+x39 <=1 
C257: x7+x41 <=1 
C258: x7+x46-y7_46 <=1 
C259: x7+x47-y7_47 <=1 
C260: x7+x50-y7_50 <=1 
C261: x7+x51 <=1 
C262: x7+x53 <=1 
C263: x7+x55-y7_55 <=1 
C264: x7+x56-y7_56 <=1 
C265: x7+x57 <=1 
C266: x7+x59 <=1 
C267: x8+x11 <=1 
C268: x8+x12-y8_12 <=1 
C269: x8+x16 <=1 
C270: x8+x17 <=1 
C271: x8+x18-y8_18 <=1 
C272: x8+x19 <=1 
C273: x8+x20 <=1 
C274: x8+x21-y8_21 <=1 
C275: x8+x22-y8_22 <=1 
C276: x8+x23-y8_23 <=1 
C277: x8+x24 <=1 
C278: x8+x25-y8_25 <=1 
C279: x8+x27 <=1 
C280: x8+x28-y8_28 <=1 
C281: x8+x29-y8_29 <=1 
C282: x8+x30-y8_30 <=1 
C283: x8+x31 <=1 
C284: x8+x32-y8_32 <=1 
C285: x8+x33 <=1 
C286: x8+x34 <=1 
C287: x8+x36 <=1 
C288: x8+x38-y8_38 <=1 
C289: x8+x39-y8_39 <=1 
C290: x8+x40 <=1 
C291: x8+x41 <=1 
C292: x8+x42 <=1 
C293: x8+x45-y8_45 <=1 
C294: x8+x49 <=1 
C295: x8+x50 <=1 
C296: x8+x51 <=1 
C297: x8+x52-y8_52 <=1 
C298: x8+x55-y8_55 <=1 
C299: x8+x57 <=1 
C300: x8+x58-y8_58 <=1 
C301: x9+x10 <=1 
C302: x9+x11-y9_11 <=1 
C303: x9+x13-y9_13 <=1 
C304: x9+x14-y9_14 <=1 
C305: x9+x17-y9_17 <=1 
C306: x9+x18 <=1 
C307: x9+x19-y9_19 <=1 
C308: x9+x20-y9_20 <=1 
C309: x9+x21 <=1 
C310: x9+x22 <=1 
C311: x9+x23 <=1 
C312: x9+x24-y9_24 <=1 
C313: x9+x25-y9_25 <=1 
C314: x9+x26 <=1 
C315: x9+x27-y9_27 <=1 
C316: x9+x29-y9_29 <=1 
C317: x9+x32 <=1 
C318: x9+x34-y9_34 <=1 
C319: x9+x35-y9_35 <=1 
C320: x9+x36-y9_36 <=1 
C321: x9+x37-y9_37 <=1 
C322: x9+x39-y9_39 <=1 
C323: x9+x40-y9_40 <=1 
C324: x9+x42-y9_42 <=1 
C325: x9+x43 <=1 
C326: x9+x46 <=1 
C327: x9+x47-y9_47 <=1 
C328: x9+x50-y9_50 <=1 
C329: x9+x51-y9_51 <=1 
C330: x9+x53-y9_53 <=1 
C331: x9+x56-y9_56 <=1 
C332: x9+x58-y9_58 <=1 
C333: x9+x59 <=1 
C334: x10+x15 <=1 
C335: x10+x18 <=1 
C336: x10+x19-y10_19 <=1 
C337: x10+x20-y10_20 <=1 
C338: x10+x21 <=1 
C339: x10+x22-y10_22 <=1 
C340: x10+x23-y10_23 <=1 
C341: x10+x24 <=1 
C342: x10+x25-y10_25 <=1 
C343: x10+x27-y10_27 <=1 
C344: x10+x28-y10_28 <=1 
C345: x10+x29-y10_29 <=1 
C346: x10+x30 <=1 
C347: x10+x32-y10_32 <=1 
C348: x10+x33 <=1 
C349: x10+x34 <=1 
C350: x10+x35 <=1 
C351: x10+x36-y10_36 <=1 
C352: x10+x39 <=1 
C353: x10+x40-y10_40 <=1 
C354: x10+x42-y10_42 <=1 
C355: x10+x43 <=1 
C356: x10+x44-y10_44 <=1 
C357: x10+x48-y10_48 <=1 
C358: x10+x49 <=1 
C359: x10+x50-y10_50 <=1 
C360: x10+x51 <=1 
C361: x10+x52 <=1 
C362: x10+x53-y10_53 <=1 
C363: x10+x54 <=1 
C364: x10+x55 <=1 
C365: x10+x56-y10_56 <=1 
C366: x10+x57 <=1 
C367: x10+x58-y10_58 <=1 
C368: x11+x14-y11_14 <=1 
C369: x11+x15 <=1 
C370: x11+x17-y11_17 <=1 
C371: x11+x18-y11_18 <=1 
C372: x11+x19 <=1 
C373: x11+x21-y11_21 <=1 
C374: x11+x22 <=1 
C375: x11+x24-y11_24 <=1 
C376: x11+x26-y11_26 <=1 
C377: x11+x27-y11_27 <=1 
C378: x11+x28 <=1 
C379: x11+x30 <=1 
C380: x11+x33-y11_33 <=1 
C381: x11+x35-y11_35 <=1 
C382: x11+x36 <=1 
C383: x11+x37-y11_37 <=1 
C384: x11+x41-y11_41 <=1 
C385: x11+x42 <=1 
C386: x11+x43-y11_43 <=1 
C387: x11+x45-y11_45 <=1 
C388: x11+x46 <=1 
C389: x11+x47 <=1 
C390: x11+x49-y11_49 <=1 
C391: x11+x51 <=1 
C392: x11+x53-y11_53 <=1 
C393: x11+x54-y11_54 <=1 
C394: x11+x56 <=1 
C395: x11+x57 <=1 
C396: x11+x59 <=1 
C397: x12+x13-y12_13 <=1 
C398: x12+x14 <=1 
C399: x12+x15-y12_15 <=1 
C400: x12+x16-y12_16 <=1 
C401: x12+x18 <=1 
C402: x12+x19-y12_19 <=1 
C403: x12+x20 <=1 
C404: x12+x23 <=1 
C405: x12+x24-y12_24 <=1 
C406: x12+x26 <=1 
C407: x12+x27 <=1 
C408: x12+x30 <=1 
C409: x12+x36 <=1 
C410: x12+x37-y12_37 <=1 
C411: x12+x38 <=1 
C412: x12+x41 <=1 
C413: x12+x42-y12_42 <=1 
C414: x12+x43-y12_43 <=1 
C415: x12+x45 <=1 
C416: x12+x46-y12_46 <=1 
C417: x12+x47 <=1 
C418: x12+x48 <=1 
C419: x12+x49 <=1 
C420: x12+x50-y12_50 <=1 
C421: x12+x51-y12_51 <=1 
C422: x12+x52 <=1 
C423: x12+x54-y12_54 <=1 
C424: x12+x55 <=1 
C425: x12+x57 <=1 
C426: x13+x14 <=1 
C427: x13+x15 <=1 
C428: x13+x17 <=1 
C429: x13+x18 <=1 
C430: x13+x20-y13_20 <=1 
C431: x13+x22-y13_22 <=1 
C432: x13+x24 <=1 
C433: x13+x25 <=1 
C434: x13+x28 <=1 
C435: x13+x29-y13_29 <=1 
C436: x13+x30 <=1 
C437: x13+x31-y13_31 <=1 
C438: x13+x32 <=1 
C439: x13+x35 <=1 
C440: x13+x37-y13_37 <=1 
C441: x13+x38-y13_38 <=1 
C442: x13+x39 <=1 
C443: x13+x40 <=1 
C444: x13+x41 <=1 
C445: x13+x42 <=1 
C446: x13+x43-y13_43 <=1 
C447: x13+x44-y13_44 <=1 
C448: x13+x45 <=1 
C449: x13+x46 <=1 
C450: x13+x49 <=1 
C451: x13+x51-y13_51 <=1 
C452: x13+x53-y13_53 <=1 
C453: x13+x54-y13_54 <=1 
C454: x13+x56-y13_56 <=1 
C455: x13+x57-y13_57 <=1 
C456: x13+x58-y13_58 <=1 
C457: x13+x59-y13_59 <=1 
C458: x14+x16-y14_16 <=1 
C459: x14+x17-y14_17 <=1 
C460: x14+x23-y14_23 <=1 
C461: x14+x24 <=1 
C462: x14+x25-y14_25 <=1 
C463: x14+x27-y14_27 <=1 
C464: x14+x31-y14_31 <=1 
C465: x14+x32 <=1 
C466: x14+x34-y14_34 <=1 
C467: x14+x35-y14_35 <=1 
C468: x14+x36-y14_36 <=1 
C469: x14+x39-y14_39 <=1 
C470: x14+x40 <=1 
C471: x14+x44-y14_44 <=1 
C472: x14+x46 <=1 
C473: x14+x47-y14_47 <=1 
C474: x14+x48-y14_48 <=1 
C475: x14+x49-y14_49 <=1 
C476: x14+x50 <=1 
C477: x14+x51-y14_51 <=1 
C478: x14+x54 <=1 
C479: x14+x56 <=1 
C480: x14+x57-y14_57 <=1 
C481: x14+x59 <=1 
C482: x15+x17 <=1 
C483: x15+x18 <=1 
C484: x15+x19-y15_19 <=1 
C485: x15+x22-y15_22 <=1 
C486: x15+x27-y15_27 <=1 
C487: x15+x28-y15_28 <=1 
C488: x15+x29 <=1 
C489: x15+x30 <=1 
C490: x15+x31-y15_31 <=1 
C491: x15+x33 <=1 
C492: x15+x34-y15_34 <=1 
C493: x15+x35-y15_35 <=1 
C494: x15+x38 <=1 
C495: x15+x40-y15_40 <=1 
C496: x15+x42-y15_42 <=1 
C497: x15+x44 <=1 
C498: x15+x45 <=1 
C499: x15+x47-y15_47 <=1 
C500: x15+x49 <=1 
C501: x15+x51 <=1 
C502: x15+x52 <=1 
C503: x15+x53-y15_53 <=1 
C504: x15+x54-y15_54 <=1 
C505: x15+x55 <=1 
C506: x16+x20-y16_20 <=1 
C507: x16+x21-y16_21 <=1 
C508: x16+x22-y16_22 <=1 
C509: x16+x24 <=1 
C510: x16+x26 <=1 
C511: x16+x29-y16_29 <=1 
C512: x16+x30-y16_30 <=1 
C513: x16+x32 <=1 
C514: x16+x33-y16_33 <=1 
C515: x16+x34 <=1 
C516: x16+x35 <=1 
C517: x16+x36 <=1 
C518: x16+x37 <=1 
C519: x16+x39-y16_39 <=1 
C520: x16+x41 <=1 
C521: x16+x43 <=1 
C522: x16+x44-y16_44 <=1 
C523: x16+x45 <=1 
C524: x16+x46-y16_46 <=1 
C525: x16+x47-y16_47 <=1 
C526: x16+x49 <=1 
C527: x16+x50 <=1 
C528: x16+x51-y16_51 <=1 
C529: x16+x52 <=1 
C530: x16+x53 <=1 
C531: x16+x54-y16_54 <=1 
C532: x16+x55-y16_55 <=1 
C533: x16+x57 <=1 
C534: x16+x58 <=1 
C535: x17+x19-y17_19 <=1 
C536: x17+x20 <=1 
C537: x17+x22 <=1 
C538: x17+x23-y17_23 <=1 
C539: x17+x24 <=1 
C540: x17+x25 <=1 
C541: x17+x28-y17_28 <=1 
C542: x17+x30 <=1 
C543: x17+x31-y17_31 <=1 
C544: x17+x32-y17_32 <=1 
C545: x17+x36 <=1 
C546: x17+x37 <=1 
C547: x17+x38 <=1 
C548: x17+x40 <=1 
C549: x17+x41-y17_41 <=1 
C550: x17+x42 <=1 
C551: x17+x46 <=1 
C552: x17+x48-y17_48 <=1 
C553: x17+x51-y17_51 <=1 
C554: x17+x52-y17_52 <=1 
C555: x17+x53-y17_53 <=1 
C556: x17+x56-y17_56 <=1 
C557: x17+x59-y17_59 <=1 
C558: x18+x21-y18_21 <=1 
C559: x18+x22-y18_22 <=1 
C560: x18+x24 <=1 
C561: x18+x27-y18_27 <=1 
C562: x18+x30-y18_30 <=1 
C563: x18+x32-y18_32 <=1 
C564: x18+x36-y18_36 <=1 
C565: x18+x37 <=1 
C566: x18+x40 <=1 
C567: x18+x41-y18_41 <=1 
C568: x18+x42-y18_42 <=1 
C569: x18+x43-y18_43 <=1 
C570: x18+x44-y18_44 <=1 
C571: x18+x46 <=1 
C572: x18+x47 <=1 
C573: x18+x48-y18_48 <=1 
C574: x18+x49-y18_49 <=1 
C575: x18+x50 <=1 
C576: x18+x51-y18_51 <=1 
C577: x18+x53-y18_53 <=1 
C578: x18+x55-y18_55 <=1 
C579: x18+x57 <=1 
C580: x18+x58 <=1 
C581: x18+x59 <=1 
C582: x19+x22-y19_22 <=1 
C583: x19+x24 <=1 
C584: x19+x29-y19_29 <=1 
C585: x19+x31-y19_31 <=1 
C586: x19+x32-y19_32 <=1 
C587: x19+x33-y19_33 <=1 
C588: x19+x34-y19_34 <=1 
C589: x19+x35 <=1 
C590: x19+x36-y19_36 <=1 
C591: x19+x39-y19_39 <=1 
C592: x19+x40-y19_40 <=1 
C593: x19+x42 <=1 
C594: x19+x43 <=1 
C595: x19+x45 <=1 
C596: x19+x48-y19_48 <=1 
C597: x19+x49-y19_49 <=1 
C598: x19+x51 <=1 
C599: x19+x52-y19_52 <=1 
C600: x19+x53-y19_53 <=1 
C601: x19+x59-y19_59 <=1 
C602: x20+x21 <=1 
C603: x20+x23-y20_23 <=1 
C604: x20+x26-y20_26 <=1 
C605: x20+x27 <=1 
C606: x20+x31-y20_31 <=1 
C607: x20+x34 <=1 
C608: x20+x36-y20_36 <=1 
C609: x20+x38-y20_38 <=1 
C610: x20+x39 <=1 
C611: x20+x42 <=1 
C612: x20+x45-y20_45 <=1 
C613: x20+x46 <=1 
C614: x20+x48 <=1 
C615: x20+x49-y20_49 <=1 
C616: x20+x50 <=1 
C617: x20+x52-y20_52 <=1 
C618: x20+x56-y20_56 <=1 
C619: x20+x58-y20_58 <=1 
C620: x20+x59 <=1 
C621: x21+x22 <=1 
C622: x21+x23 <=1 
C623: x21+x26-y21_26 <=1 
C624: x21+x28-y21_28 <=1 
C625: x21+x29 <=1 
C626: x21+x31 <=1 
C627: x21+x32-y21_32 <=1 
C628: x21+x33 <=1 
C629: x21+x34-y21_34 <=1 
C630: x21+x35 <=1 
C631: x21+x38-y21_38 <=1 
C632: x21+x39 <=1 
C633: x21+x40 <=1 
C634: x21+x41 <=1 
C635: x21+x42-y21_42 <=1 
C636: x21+x44-y21_44 <=1 
C637: x21+x46 <=1 
C638: x21+x47-y21_47 <=1 
C639: x21+x48-y21_48 <=1 
C640: x21+x50 <=1 
C641: x21+x51-y21_51 <=1 
C642: x21+x52-y21_52 <=1 
C643: x21+x54 <=1 
C644: x21+x57-y21_57 <=1 
C645: x21+x58-y21_58 <=1 
C646: x21+x59 <=1 
C647: x22+x23 <=1 
C648: x22+x25-y22_25 <=1 
C649: x22+x26-y22_26 <=1 
C650: x22+x27 <=1 
C651: x22+x31 <=1 
C652: x22+x33 <=1 
C653: x22+x34-y22_34 <=1 
C654: x22+x36 <=1 
C655: x22+x37-y22_37 <=1 
C656: x22+x41-y22_41 <=1 
C657: x22+x44 <=1 
C658: x22+x45 <=1 
C659: x22+x46-y22_46 <=1 
C660: x22+x51 <=1 
C661: x22+x54 <=1 
C662: x22+x55 <=1 
C663: x22+x56 <=1 
C664: x22+x57 <=1 
C665: x22+x58 <=1 
C666: x22+x59-y22_59 <=1 
C667: x23+x25 <=1 
C668: x23+x27 <=1 
C669: x23+x28 <=1 
C670: x23+x29-y23_29 <=1 
C671: x23+x30 <=1 
C672: x23+x32-y23_32 <=1 
C673: x23+x35 <=1 
C674: x23+x37-y23_37 <=1 
C675: x23+x38-y23_38 <=1 
C676: x23+x39-y23_39 <=1 
C677: x23+x43-y23_43 <=1 
C678: x23+x46-y23_46 <=1 
C679: x23+x47 <=1 
C680: x23+x48-y23_48 <=1 
C681: x23+x49-y23_49 <=1 
C682: x23+x51 <=1 
C683: x23+x52 <=1 
C684: x23+x53-y23_53 <=1 
C685: x23+x54 <=1 
C686: x23+x55-y23_55 <=1 
C687: x23+x56 <=1 
C688: x23+x57 <=1 
C689: x23+x58-y23_58 <=1 
C690: x24+x25 <=1 
C691: x24+x26 <=1 
C692: x24+x28-y24_28 <=1 
C693: x24+x29 <=1 
C694: x24+x30 <=1 
C695: x24+x32-y24_32 <=1 
C696: x24+x33 <=1 
C697: x24+x35-y24_35 <=1 
C698: x24+x36 <=1 
C699: x24+x39-y24_39 <=1 
C700: x24+x40-y24_40 <=1 
C701: x24+x41 <=1 
C702: x24+x42 <=1 
C703: x24+x43-y24_43 <=1 
C704: x24+x44-y24_44 <=1 
C705: x24+x45-y24_45 <=1 
C706: x24+x47-y24_47 <=1 
C707: x24+x48-y24_48 <=1 
C708: x24+x49 <=1 
C709: x24+x50 <=1 
C710: x24+x52-y24_52 <=1 
C711: x24+x54 <=1 
C712: x24+x55-y24_55 <=1 
C713: x24+x56-y24_56 <=1 
C714: x24+x58 <=1 
C715: x25+x26-y25_26 <=1 
C716: x25+x28-y25_28 <=1 
C717: x25+x29-y25_29 <=1 
C718: x25+x30-y25_30 <=1 
C719: x25+x32-y25_32 <=1 
C720: x25+x33-y25_33 <=1 
C721: x25+x34-y25_34 <=1 
C722: x25+x35 <=1 
C723: x25+x40 <=1 
C724: x25+x41-y25_41 <=1 
C725: x25+x42 <=1 
C726: x25+x44 <=1 
C727: x25+x45 <=1 
C728: x25+x46 <=1 
C729: x25+x48-y25_48 <=1 
C730: x25+x49 <=1 
C731: x25+x52-y25_52 <=1 
C732: x25+x53-y25_53 <=1 
C733: x25+x54-y25_54 <=1 
C734: x25+x55-y25_55 <=1 
C735: x25+x57 <=1 
C736: x25+x58-y25_58 <=1 
C737: x26+x27 <=1 
C738: x26+x29 <=1 
C739: x26+x31 <=1 
C740: x26+x32 <=1 
C741: x26+x33 <=1 
C742: x26+x34 <=1 
C743: x26+x35-y26_35 <=1 
C744: x26+x36-y26_36 <=1 
C745: x26+x37-y26_37 <=1 
C746: x26+x38 <=1 
C747: x26+x41-y26_41 <=1 
C748: x26+x44 <=1 
C749: x26+x46 <=1 
C750: x26+x49 <=1 
C751: x26+x52-y26_52 <=1 
C752: x26+x56-y26_56 <=1 
C753: x26+x57 <=1 
C754: x26+x59-y26_59 <=1 
C755: x27+x30 <=1 
C756: x27+x32-y27_32 <=1 
C757: x27+x36 <=1 
C758: x27+x37 <=1 
C759: x27+x40-y27_40 <=1 
C760: x27+x42-y27_42 <=1 
C761: x27+x43 <=1 
C762: x27+x44 <=1 
C763: x27+x47 <=1 
C764: x27+x48-y27_48 <=1 
C765: x27+x49 <=1 
C766: x27+x51-y27_51 <=1 
C767: x27+x53-y27_53 <=1 
C768: x27+x54-y27_54 <=1 
C769: x27+x55 <=1 
C770: x27+x56-y27_56 <=1 
C771: x27+x57-y27_57 <=1 
C772: x27+x58 <=1 
C773: x28+x29 <=1 
C774: x28+x32-y28_32 <=1 
C775: x28+x33 <=1 
C776: x28+x35-y28_35 <=1 
C777: x28+x36-y28_36 <=1 
C778: x28+x38 <=1 
C779: x28+x39-y28_39 <=1 
C780: x28+x41 <=1 
C781: x28+x43-y28_43 <=1 
C782: x28+x44-y28_44 <=1 
C783: x28+x45-y28_45 <=1 
C784: x28+x46 <=1 
C785: x28+x47 <=1 
C786: x28+x49-y28_49 <=1 
C787: x28+x50 <=1 
C788: x28+x51 <=1 
C789: x28+x53 <=1 
C790: x28+x54 <=1 
C791: x28+x57-y28_57 <=1 
C792: x28+x59-y28_59 <=1 
C793: x29+x30-y29_30 <=1 
C794: x29+x32-y29_32 <=1 
C795: x29+x33-y29_33 <=1 
C796: x29+x38 <=1 
C797: x29+x39-y29_39 <=1 
C798: x29+x42-y29_42 <=1 
C799: x29+x43-y29_43 <=1 
C800: x29+x44 <=1 
C801: x29+x45 <=1 
C802: x29+x47-y29_47 <=1 
C803: x29+x53 <=1 
C804: x29+x55-y29_55 <=1 
C805: x29+x57 <=1 
C806: x29+x58-y29_58 <=1 
C807: x29+x59 <=1 
C808: x30+x31-y30_31 <=1 
C809: x30+x33-y30_33 <=1 
C810: x30+x35 <=1 
C811: x30+x37-y30_37 <=1 
C812: x30+x39 <=1 
C813: x30+x41 <=1 
C814: x30+x42 <=1 
C815: x30+x44 <=1 
C816: x30+x46-y30_46 <=1 
C817: x30+x47-y30_47 <=1 
C818: x30+x48-y30_48 <=1 
C819: x30+x50-y30_50 <=1 
C820: x30+x52 <=1 
C821: x30+x53 <=1 
C822: x30+x54 <=1 
C823: x30+x55 <=1 
C824: x30+x56 <=1 
C825: x30+x57 <=1 
C826: x30+x58 <=1 
C827: x31+x32-y31_32 <=1 
C828: x31+x33-y31_33 <=1 
C829: x31+x35 <=1 
C830: x31+x37 <=1 
C831: x31+x38-y31_38 <=1 
C832: x31+x39 <=1 
C833: x31+x40-y31_40 <=1 
C834: x31+x42 <=1 
C835: x31+x43 <=1 
C836: x31+x44 <=1 
C837: x31+x46 <=1 
C838: x31+x47 <=1 
C839: x31+x49-y31_49 <=1 
C840: x31+x52-y31_52 <=1 
C841: x31+x53-y31_53 <=1 
C842: x31+x54-y31_54 <=1 
C843: x31+x57-y31_57 <=1 
C844: x31+x58-y31_58 <=1 
C845: x32+x34 <=1 
C846: x32+x35-y32_35 <=1 
C847: x32+x36 <=1 
C848: x32+x38 <=1 
C849: x32+x40 <=1 
C850: x32+x41 <=1 
C851: x32+x42-y32_42 <=1 
C852: x32+x43-y32_43 <=1 
C853: x32+x45-y32_45 <=1 
C854: x32+x46-y32_46 <=1 
C855: x32+x50 <=1 
C856: x32+x52-y32_52 <=1 
C857: x32+x55-y32_55 <=1 
C858: x32+x56-y32_56 <=1 
C859: x32+x57-y32_57 <=1 
C860: x33+x34-y33_34 <=1 
C861: x33+x35-y33_35 <=1 
C862: x33+x37 <=1 
C863: x33+x40 <=1 
C864: x33+x41-y33_41 <=1 
C865: x33+x42-y33_42 <=1 
C866: x33+x43 <=1 
C867: x33+x44 <=1 
C868: x33+x46-y33_46 <=1 
C869: x33+x47 <=1 
C870: x33+x48 <=1 
C871: x33+x49-y33_49 <=1 
C872: x33+x51-y33_51 <=1 
C873: x33+x52 <=1 
C874: x33+x53-y33_53 <=1 
C875: x33+x54 <=1 
C876: x33+x55 <=1 
C877: x33+x57-y33_57 <=1 
C878: x33+x58 <=1 
C879: x33+x59-y33_59 <=1 
C880: x34+x37-y34_37 <=1 
C881: x34+x38-y34_38 <=1 
C882: x34+x39 <=1 
C883: x34+x40 <=1 
C884: x34+x41 <=1 
C885: x34+x42-y34_42 <=1 
C886: x34+x44-y34_44 <=1 
C887: x34+x45 <=1 
C888: x34+x46 <=1 
C889: x34+x48-y34_48 <=1 
C890: x34+x49-y34_49 <=1 
C891: x34+x52-y34_52 <=1 
C892: x34+x57 <=1 
C893: x35+x36 <=1 
C894: x35+x37 <=1 
C895: x35+x40-y35_40 <=1 
C896: x35+x41 <=1 
C897: x35+x42-y35_42 <=1 
C898: x35+x43 <=1 
C899: x35+x44 <=1 
C900: x35+x46-y35_46 <=1 
C901: x35+x48-y35_48 <=1 
C902: x35+x49-y35_49 <=1 
C903: x35+x50 <=1 
C904: x35+x51 <=1 
C905: x35+x52-y35_52 <=1 
C906: x35+x53 <=1 
C907: x35+x54 <=1 
C908: x35+x55 <=1 
C909: x35+x58 <=1 
C910: x35+x59 <=1 
C911: x36+x38-y36_38 <=1 
C912: x36+x39-y36_39 <=1 
C913: x36+x41 <=1 
C914: x36+x42-y36_42 <=1 
C915: x36+x44 <=1 
C916: x36+x46 <=1 
C917: x36+x47 <=1 
C918: x36+x49 <=1 
C919: x36+x50 <=1 
C920: x36+x51-y36_51 <=1 
C921: x36+x52 <=1 
C922: x36+x53-y36_53 <=1 
C923: x36+x54 <=1 
C924: x36+x55 <=1 
C925: x36+x56 <=1 
C926: x36+x58-y36_58 <=1 
C927: x37+x39-y37_39 <=1 
C928: x37+x40 <=1 
C929: x37+x42 <=1 
C930: x37+x45-y37_45 <=1 
C931: x37+x49-y37_49 <=1 
C932: x37+x52-y37_52 <=1 
C933: x37+x56 <=1 
C934: x37+x57-y37_57 <=1 
C935: x38+x40 <=1 
C936: x38+x41-y38_41 <=1 
C937: x38+x44-y38_44 <=1 
C938: x38+x46-y38_46 <=1 
C939: x38+x47 <=1 
C940: x38+x48 <=1 
C941: x38+x50-y38_50 <=1 
C942: x38+x51 <=1 
C943: x38+x52-y38_52 <=1 
C944: x38+x53 <=1 
C945: x38+x54-y38_54 <=1 
C946: x38+x56 <=1 
C947: x38+x58-y38_58 <=1 
C948: x39+x40-y39_40 <=1 
C949: x39+x41-y39_41 <=1 
C950: x39+x42 <=1 
C951: x39+x44 <=1 
C952: x39+x51 <=1 
C953: x39+x53 <=1 
C954: x39+x58-y39_58 <=1 
C955: x40+x46 <=1 
C956: x40+x47 <=1 
C957: x40+x48 <=1 
C958: x40+x49 <=1 
C959: x40+x50-y40_50 <=1 
C960: x40+x51 <=1 
C961: x40+x52-y40_52 <=1 
C962: x40+x53-y40_53 <=1 
C963: x40+x54 <=1 
C964: x40+x56-y40_56 <=1 
C965: x40+x57-y40_57 <=1 
C966: x40+x58-y40_58 <=1 
C967: x41+x43 <=1 
C968: x41+x44 <=1 
C969: x41+x46-y41_46 <=1 
C970: x41+x47-y41_47 <=1 
C971: x41+x48 <=1 
C972: x41+x49-y41_49 <=1 
C973: x41+x53-y41_53 <=1 
C974: x41+x57 <=1 
C975: x41+x58 <=1 
C976: x41+x59 <=1 
C977: x42+x43 <=1 
C978: x42+x44-y42_44 <=1 
C979: x42+x45-y42_45 <=1 
C980: x42+x47 <=1 
C981: x42+x48-y42_48 <=1 
C982: x42+x49-y42_49 <=1 
C983: x42+x50-y42_50 <=1 
C984: x42+x51 <=1 
C985: x42+x53 <=1 
C986: x42+x54 <=1 
C987: x42+x55 <=1 
C988: x42+x57 <=1 
C989: x42+x58-y42_58 <=1 
C990: x42+x59-y42_59 <=1 
C991: x43+x45 <=1 
C992: x43+x46-y43_46 <=1 
C993: x43+x47 <=1 
C994: x43+x48 <=1 
C995: x43+x49 <=1 
C996: x43+x52-y43_52 <=1 
C997: x43+x53 <=1 
C998: x43+x54 <=1 
C999: x43+x55 <=1 
C1000: x43+x58-y43_58 <=1 
C1001: x44+x45 <=1 
C1002: x44+x49 <=1 
C1003: x44+x50-y44_50 <=1 
C1004: x44+x51 <=1 
C1005: x44+x52-y44_52 <=1 
C1006: x44+x53 <=1 
C1007: x44+x54-y44_54 <=1 
C1008: x44+x55-y44_55 <=1 
C1009: x44+x56 <=1 
C1010: x44+x58 <=1 
C1011: x45+x46-y45_46 <=1 
C1012: x45+x49 <=1 
C1013: x45+x50 <=1 
C1014: x45+x51-y45_51 <=1 
C1015: x45+x52-y45_52 <=1 
C1016: x45+x53 <=1 
C1017: x45+x54-y45_54 <=1 
C1018: x45+x55-y45_55 <=1 
C1019: x45+x56-y45_56 <=1 
C1020: x46+x48 <=1 
C1021: x46+x50 <=1 
C1022: x46+x51 <=1 
C1023: x46+x52 <=1 
C1024: x46+x53 <=1 
C1025: x46+x54-y46_54 <=1 
C1026: x46+x55 <=1 
C1027: x46+x56-y46_56 <=1 
C1028: x46+x57-y46_57 <=1 
C1029: x47+x52 <=1 
C1030: x47+x53 <=1 
C1031: x47+x54 <=1 
C1032: x47+x55 <=1 
C1033: x47+x56-y47_56 <=1 
C1034: x47+x57 <=1 
C1035: x47+x58-y47_58 <=1 
C1036: x48+x50-y48_50 <=1 
C1037: x48+x51 <=1 
C1038: x48+x54-y48_54 <=1 
C1039: x48+x55-y48_55 <=1 
C1040: x48+x56-y48_56 <=1 
C1041: x48+x57-y48_57 <=1 
C1042: x48+x58-y48_58 <=1 
C1043: x48+x59 <=1 
C1044: x49+x50 <=1 
C1045: x49+x52-y49_52 <=1 
C1046: x49+x55-y49_55 <=1 
C1047: x49+x56-y49_56 <=1 
C1048: x49+x57-y49_57 <=1 
C1049: x49+x59 <=1 
C1050: x50+x51 <=1 
C1051: x50+x52-y50_52 <=1 
C1052: x50+x53 <=1 
C1053: x50+x54-y50_54 <=1 
C1054: x50+x56-y50_56 <=1 
C1055: x50+x57-y50_57 <=1 
C1056: x50+x59 <=1 
C1057: x51+x53-y51_53 <=1 
C1058: x51+x56 <=1 
C1059: x51+x57-y51_57 <=1 
C1060: x51+x58 <=1 
C1061: x51+x59 <=1 
C1062: x52+x54 <=1 
C1063: x52+x57 <=1 
C1064: x52+x58-y52_58 <=1 
C1065: x53+x55 <=1 
C1066: x53+x57-y53_57 <=1 
C1067: x53+x59-y53_59 <=1 
C1068: x54+x57 <=1 
C1069: x55+x57-y55_57 <=1 
C1070: x55+x58-y55_58 <=1 
C1071: x56+x57 <=1 
C1072: x56+x58 <=1 
C1073: x56+x59 <=1 
C1074: x57+x58 <=1 
C1075: x57+x59 <=1 
C1076: x58+x59 <=1 

binary
x0
x1
x2
x3
x4
x5
x6
x7
x8
x9
x10
x11
x12
x13
x14
x15
x16
x17
x18
x19
x20
x21
x22
x23
x24
x25
x26
x27
x28
x29
x30
x31
x32
x33
x34
x35
x36
x37
x38
x39
x40
x41
x42
x43
x44
x45
x46
x47
x48
x49
x50
x51
x52
x53
x54
x55
x56
x57
x58
x59
