problem_generation/data/GISP/train/er_n=60_m=1076_p=0.60_SET2_setparam=100.00_alpha=0.50_174.sol
objective value:                                 1265
x7                                                  1 	(obj:100)
x9                                                  1 	(obj:100)
x11                                                 1 	(obj:100)
x14                                                 1 	(obj:100)
x17                                                 1 	(obj:100)
x29                                                 1 	(obj:100)
x31                                                 1 	(obj:100)
x34                                                 1 	(obj:100)
x48                                                 1 	(obj:100)
x49                                                 1 	(obj:100)
x52                                                 1 	(obj:100)
x55                                                 1 	(obj:100)
x58                                                 1 	(obj:100)
y11_14                                              1 	(obj:-1)
y9_58                                               1 	(obj:-1)
y48_58                                              1 	(obj:-1)
y17_48                                              1 	(obj:-1)
y17_52                                              1 	(obj:-1)
y9_34                                               1 	(obj:-1)
y9_11                                               1 	(obj:-1)
y9_29                                               1 	(obj:-1)
y31_52                                              1 	(obj:-1)
y49_55                                              1 	(obj:-1)
y9_14                                               1 	(obj:-1)
y34_48                                              1 	(obj:-1)
y34_52                                              1 	(obj:-1)
y29_58                                              1 	(obj:-1)
y11_49                                              1 	(obj:-1)
y7_29                                               1 	(obj:-1)
y11_17                                              1 	(obj:-1)
y52_58                                              1 	(obj:-1)
y14_31                                              1 	(obj:-1)
y14_49                                              1 	(obj:-1)
y14_17                                              1 	(obj:-1)
y7_14                                               1 	(obj:-1)
y7_9                                                1 	(obj:-1)
y55_58                                              1 	(obj:-1)
y17_31                                              1 	(obj:-1)
y9_17                                               1 	(obj:-1)
y31_49                                              1 	(obj:-1)
y31_58                                              1 	(obj:-1)
y49_52                                              1 	(obj:-1)
y7_55                                               1 	(obj:-1)
y14_48                                              1 	(obj:-1)
y48_55                                              1 	(obj:-1)
y14_34                                              1 	(obj:-1)
y34_49                                              1 	(obj:-1)
y29_55                                              1 	(obj:-1)
